424 5
10 10 10 10 10 

0 0 0 0 0 0 5 2 14 26 38 50 
0 0 0 0 0 0 4 3 4 5 6 
1 0 0 0 1 0 3 11 8 7 
2 0 0 0 4 0 4 12 11 10 8 
10 0 0 0 2 0 3 11 10 8 
10 0 0 0 5 0 4 11 10 8 16 
10 0 0 0 7 0 3 12 10 9 
1 0 0 0 7 0 1 9 
8 0 0 0 6 0 1 13 
8 0 0 0 4 0 1 13 
5 0 0 0 5 0 1 13 
4 0 0 0 9 0 1 13 
0 0 0 0 0 0 1 62 
0 0 0 0 0 0 5 15 16 18 23 24 
10 0 0 1 0 0 3 22 19 17 
4 0 0 5 0 0 3 21 20 19 
2 0 0 6 0 0 2 21 20 
8 0 0 7 0 0 1 19 
1 0 0 5 0 0 1 25 
3 0 0 7 0 0 1 25 
1 0 0 7 0 0 1 25 
3 0 0 5 0 0 1 25 
7 0 0 2 0 0 2 25 254 
1 0 0 5 0 0 1 25 
0 0 0 0 0 0 1 62 
0 0 0 0 0 0 5 27 28 34 35 36 
4 0 0 0 0 2 2 33 29 
3 0 0 0 0 7 1 30 
2 0 0 0 0 2 1 32 
6 0 0 0 0 10 1 31 
5 0 0 0 0 4 1 37 
8 0 0 0 0 5 1 37 
7 0 0 0 0 8 1 37 
8 0 0 0 0 1 1 37 
8 0 0 0 0 3 2 37 382 
4 0 0 0 0 8 1 37 
0 0 0 0 0 0 1 62 
0 0 0 0 0 0 2 39 40 
6 1 0 0 0 0 4 44 43 42 41 
3 6 0 0 0 0 4 44 43 42 41 
7 2 0 0 0 0 4 48 47 46 45 
5 7 0 0 0 0 4 48 47 46 45 
5 7 0 0 0 0 4 48 47 46 45 
10 9 0 0 0 0 4 47 46 45 142 
4 6 0 0 0 0 1 49 
2 3 0 0 0 0 1 49 
5 3 0 0 0 0 1 49 
2 6 0 0 0 0 1 49 
0 0 0 0 0 0 1 62 
0 0 0 0 0 0 5 51 52 58 59 60 
10 0 0 0 0 1 3 57 54 53 
5 0 0 0 0 5 2 56 54 
8 0 0 0 0 7 1 55 
5 0 0 0 0 8 1 61 
7 0 0 0 0 5 1 61 
1 0 0 0 0 8 1 61 
2 0 0 0 0 5 2 61 85 
8 0 0 0 0 3 1 61 
6 0 0 0 0 5 1 61 
9 0 0 0 0 3 1 61 
0 0 0 0 0 0 1 62 
0 0 0 0 0 0 5 63 75 87 99 111 
0 0 0 0 0 0 6 64 65 67 71 72 73 
5 0 0 1 0 0 2 70 66 
3 0 0 6 0 0 1 66 
2 0 0 5 0 0 3 69 68 377 
6 0 0 10 0 0 1 68 
7 0 0 1 0 0 1 74 
2 0 0 7 0 0 1 74 
4 0 0 5 0 0 1 74 
6 0 0 6 0 0 1 74 
9 0 0 6 0 0 1 74 
7 0 0 3 0 0 1 74 
0 0 0 0 0 0 1 123 
0 0 0 0 0 0 5 76 77 79 80 81 
6 1 0 0 0 0 4 85 84 83 82 
4 4 0 0 0 0 3 84 78 170 
10 6 0 0 0 0 2 83 82 
8 3 0 0 0 0 2 84 83 
9 4 0 0 0 0 1 85 
7 6 0 0 0 0 1 82 
7 6 0 0 0 0 1 86 
3 6 0 0 0 0 1 86 
9 5 0 0 0 0 1 86 
2 9 0 0 0 0 1 86 
0 0 0 0 0 0 1 123 
0 0 0 0 0 0 3 88 90 91 
4 2 0 0 0 0 3 96 92 89 
3 3 0 0 0 0 5 97 95 94 93 371 
1 6 0 0 0 0 4 96 95 94 93 
8 10 0 0 0 0 4 96 95 94 93 
8 5 0 0 0 0 1 93 
7 5 0 0 0 0 1 98 
8 5 0 0 0 0 1 98 
5 6 0 0 0 0 1 98 
7 4 0 0 0 0 1 98 
2 4 0 0 0 0 1 98 
0 0 0 0 0 0 1 123 
0 0 0 0 0 0 4 100 101 103 106 
7 0 0 0 1 0 3 109 107 104 
7 0 0 0 8 0 2 105 102 
2 0 0 0 8 0 2 108 107 
4 0 0 0 2 0 2 108 107 
10 0 0 0 5 0 1 108 
9 0 0 0 10 0 1 107 
3 0 0 0 5 0 1 107 
7 0 0 0 4 0 2 110 378 
3 0 0 0 5 0 1 110 
9 0 0 0 2 0 1 110 
0 0 0 0 0 0 1 123 
0 0 0 0 0 0 4 112 113 117 121 
4 0 0 0 0 1 3 120 118 115 
4 0 0 0 0 7 3 116 114 385 
4 0 0 0 0 4 2 119 118 
6 0 0 0 0 5 1 119 
2 0 0 0 0 9 1 118 
8 0 0 0 0 4 1 118 
1 0 0 0 0 5 1 122 
9 0 0 0 0 3 1 122 
8 0 0 0 0 4 1 122 
5 0 0 0 0 8 1 122 
0 0 0 0 0 0 1 123 
0 0 0 0 0 0 5 124 156 188 220 252 
0 0 0 0 0 0 6 125 126 127 128 129 130 
8 0 0 1 3 1 3 133 132 131 
3 0 0 7 6 8 3 140 133 131 
8 0 0 4 9 6 3 140 133 131 
2 0 0 4 8 5 3 136 135 132 
6 0 0 8 7 7 3 136 135 132 
8 0 0 6 4 3 2 132 131 
8 0 0 5 4 5 5 141 138 137 135 134 
1 0 0 7 4 4 5 141 140 138 137 134 
9 0 0 5 7 3 3 139 136 274 
2 0 0 5 3 5 3 144 143 142 
3 0 0 7 3 6 3 144 143 142 
9 0 0 8 5 5 3 144 143 142 
2 0 0 7 4 6 2 144 142 
5 0 0 4 2 5 2 144 142 
5 0 0 7 5 4 2 144 142 
2 0 0 4 5 9 3 146 145 143 
9 0 0 3 5 2 1 142 
2 0 0 5 6 8 3 150 146 145 
5 0 0 7 6 6 4 154 150 148 147 
10 0 0 5 4 6 3 150 148 145 
1 0 0 4 10 2 2 149 147 
1 0 0 3 6 4 2 154 148 
3 0 0 2 5 4 2 153 151 
4 0 0 5 3 3 1 149 
10 0 0 3 4 7 2 153 152 
1 0 0 3 7 6 2 153 152 
9 0 0 6 5 9 1 152 
10 0 0 3 3 3 1 155 
6 0 0 5 4 5 1 155 
7 0 0 7 3 3 1 155 
0 0 0 0 0 0 1 424 
0 0 0 0 0 0 7 157 158 159 160 166 185 186 
4 0 1 0 1 1 4 181 164 162 161 
1 0 9 0 7 7 6 182 181 180 179 178 163 
1 0 4 0 3 3 7 184 182 177 173 172 164 370 
9 0 5 0 3 2 4 183 182 169 163 
10 0 5 0 4 6 3 179 173 163 
5 0 3 0 6 4 3 176 167 165 
3 0 3 0 3 3 2 176 165 
6 0 6 0 7 3 4 179 178 176 168 
2 0 7 0 4 4 3 177 172 168 
5 0 6 0 9 4 3 181 171 167 
2 0 5 0 5 9 2 180 172 
8 0 2 0 8 9 1 170 
7 0 8 0 6 8 1 170 
4 0 2 0 8 4 1 171 
3 0 10 0 6 5 1 174 
6 0 6 0 3 4 1 175 
7 0 6 0 4 4 1 178 
10 0 6 0 5 6 1 187 
8 0 2 0 8 7 1 187 
2 0 5 0 5 6 1 187 
10 0 7 0 7 3 1 187 
2 0 6 0 4 4 1 187 
2 0 8 0 3 7 1 187 
8 0 3 0 7 8 1 187 
2 0 2 0 4 6 1 187 
9 0 1 0 7 8 1 187 
4 0 6 0 5 1 1 187 
4 0 2 0 2 3 1 187 
4 0 7 0 3 5 1 187 
9 0 7 0 3 6 1 187 
0 0 0 0 0 0 1 424 
0 0 0 0 0 0 7 189 191 193 194 197 217 218 
3 1 0 0 1 1 4 210 199 192 190 
9 10 0 0 4 3 3 209 203 195 
4 8 0 0 3 4 5 216 215 211 206 196 
4 6 0 0 9 7 4 213 212 206 196 
9 5 0 0 5 4 4 211 210 206 196 
6 7 0 0 4 6 5 214 211 208 200 199 
6 3 0 0 7 8 2 206 196 
1 4 0 0 5 8 3 207 202 198 
4 2 0 0 8 8 3 212 210 205 
3 5 0 0 5 6 1 200 
8 3 0 0 8 8 2 209 206 
3 6 0 0 4 6 1 201 
4 8 0 0 7 8 1 204 
8 7 0 0 4 6 1 205 
10 3 0 0 5 4 1 208 
10 6 0 0 3 3 1 219 
4 7 0 0 8 3 1 219 
7 5 0 0 6 8 1 219 
7 4 0 0 4 5 1 219 
4 6 0 0 4 6 1 219 
3 7 0 0 6 7 1 219 
1 5 0 0 4 9 1 219 
5 3 0 0 4 5 1 219 
6 3 0 0 4 5 2 219 300 
5 5 0 0 3 2 1 219 
2 4 0 0 8 1 1 219 
4 6 0 0 5 3 1 219 
4 3 0 0 2 4 1 219 
1 4 0 0 5 1 1 219 
3 4 0 0 5 1 1 219 
0 0 0 0 0 0 1 424 
0 0 0 0 0 0 9 221 224 227 228 230 247 248 249 250 
8 1 1 0 0 1 5 242 235 234 223 222 
2 3 5 0 0 3 3 241 240 225 
1 8 4 0 0 5 4 245 243 239 226 
10 10 5 0 0 5 3 246 244 226 
9 2 4 0 0 4 2 239 226 
10 5 3 0 0 4 3 237 233 229 
3 4 3 0 0 1 5 244 242 239 237 232 
9 5 3 0 0 2 3 240 239 234 
8 7 3 0 0 8 1 231 
1 3 5 0 0 6 2 243 242 
4 4 9 0 0 5 1 232 
7 3 3 0 0 5 1 236 
6 3 7 0 0 7 2 238 362 
5 10 5 0 0 4 1 241 
1 6 7 0 0 7 1 240 
7 7 7 0 0 9 1 251 
5 3 2 0 0 3 1 251 
3 8 8 0 0 5 1 251 
6 4 7 0 0 4 1 251 
10 4 4 0 0 5 1 251 
5 5 3 0 0 4 1 251 
6 4 8 0 0 3 1 251 
8 10 6 0 0 5 1 251 
7 8 5 0 0 3 1 251 
6 2 4 0 0 4 1 251 
5 2 5 0 0 10 1 251 
5 3 7 0 0 7 1 251 
8 4 9 0 0 7 1 251 
2 5 3 0 0 10 1 251 
2 7 5 0 0 4 1 251 
0 0 0 0 0 0 1 424 
0 0 0 0 0 0 5 253 254 256 261 262 
10 0 0 0 1 0 3 260 259 257 
7 0 0 0 9 0 2 258 255 
1 0 0 0 6 0 1 257 
5 0 0 0 4 0 1 257 
3 0 0 0 4 0 1 263 
4 0 0 0 8 0 2 263 349 
9 0 0 0 6 0 1 263 
3 0 0 0 5 0 1 263 
2 0 0 0 3 0 1 263 
9 0 0 0 4 0 1 263 
0 0 0 0 0 0 5 264 286 308 330 352 
0 0 0 0 0 0 9 265 266 268 269 280 281 282 283 284 
5 0 1 1 0 0 3 279 273 267 
1 0 5 7 0 0 5 278 275 274 273 271 
7 0 6 6 0 0 4 276 275 274 270 
10 0 3 6 0 0 2 277 273 
2 0 10 6 0 0 2 274 273 
5 0 4 5 0 0 1 271 
10 0 4 3 0 0 1 272 
6 0 5 3 0 0 2 285 407 
2 0 4 5 0 0 1 285 
3 0 7 7 0 0 1 285 
6 0 4 5 0 0 1 285 
2 0 4 3 0 0 1 285 
10 0 6 5 0 0 1 285 
10 0 3 3 0 0 1 285 
4 0 9 1 0 0 1 285 
7 0 5 8 0 0 1 285 
4 0 5 10 0 0 1 285 
9 0 4 4 0 0 1 285 
10 0 6 6 0 0 1 285 
8 0 5 6 0 0 1 285 
0 0 0 0 0 0 1 424 
0 0 0 0 0 0 10 287 289 290 291 301 302 303 304 305 306 
4 1 4 0 0 0 3 300 299 288 
2 7 4 0 0 0 3 297 295 292 
9 4 7 0 0 0 3 296 295 294 
4 5 4 0 0 0 2 298 296 
5 7 5 0 0 0 2 296 295 
7 5 4 0 0 0 1 293 
10 5 10 0 0 0 1 294 
7 2 5 0 0 0 1 307 
4 8 7 0 0 0 2 307 394 
5 9 3 0 0 0 1 307 
1 6 3 0 0 0 1 307 
2 5 3 0 0 0 1 307 
8 4 7 0 0 0 1 307 
6 2 3 0 0 0 1 307 
3 7 5 0 0 0 1 307 
2 4 8 0 0 0 1 307 
2 5 4 0 0 0 1 307 
8 3 5 0 0 0 1 307 
5 4 4 0 0 0 1 307 
5 7 5 0 0 0 1 307 
0 0 0 0 0 0 1 424 
0 0 0 0 0 0 6 309 311 312 313 316 318 
5 0 1 1 0 0 2 317 310 
5 0 2 6 0 0 4 328 321 319 314 
9 0 4 4 0 0 3 327 321 315 
9 0 7 5 0 0 3 320 319 317 
2 0 8 4 0 0 2 317 314 
10 0 9 6 0 0 4 326 324 323 320 
9 0 5 6 0 0 4 328 325 324 319 
7 0 5 7 0 0 4 325 324 321 319 
9 0 2 4 0 0 3 324 322 321 
7 0 6 6 0 0 3 328 322 321 
3 0 10 6 0 0 3 326 323 322 
3 0 3 2 0 0 3 327 325 322 
9 0 3 5 0 0 1 323 
2 0 5 6 0 0 1 329 
1 0 4 4 0 0 1 329 
4 0 5 2 0 0 1 329 
5 0 5 6 0 0 1 329 
10 0 4 4 0 0 2 329 362 
2 0 9 10 0 0 1 329 
3 0 3 6 0 0 1 329 
0 0 0 0 0 0 1 424 
0 0 0 0 0 0 9 331 334 337 338 346 347 348 349 350 
10 1 1 0 0 0 3 345 344 332 
9 8 7 0 0 0 3 343 342 333 
8 3 4 0 0 0 1 335 
4 6 5 0 0 0 1 336 
1 5 5 0 0 0 1 339 
5 2 5 0 0 0 2 341 382 
6 4 5 0 0 0 1 340 
9 7 9 0 0 0 1 340 
4 6 6 0 0 0 1 351 
6 3 4 0 0 0 1 351 
7 7 3 0 0 0 1 351 
4 6 1 0 0 0 1 351 
8 5 9 0 0 0 1 351 
5 7 5 0 0 0 1 351 
5 5 5 0 0 0 1 351 
2 4 6 0 0 0 1 351 
1 5 7 0 0 0 1 351 
10 5 5 0 0 0 1 351 
6 4 4 0 0 0 1 351 
8 7 4 0 0 0 1 351 
0 0 0 0 0 0 1 424 
0 0 0 0 0 0 3 353 354 362 
4 0 2 0 0 0 4 361 360 356 355 
2 0 6 0 0 0 1 355 
8 0 4 0 0 0 3 359 358 357 
7 0 4 0 0 0 1 357 
5 0 4 0 0 0 1 363 
5 0 1 0 0 0 1 363 
1 0 4 0 0 0 1 363 
1 0 8 0 0 0 1 363 
1 0 10 0 0 0 2 363 367 
6 0 7 0 0 0 1 363 
0 0 0 0 0 0 5 364 376 388 400 412 
0 0 0 0 0 0 5 365 366 369 373 374 
5 0 0 0 0 1 3 371 367 396 
4 0 0 0 0 2 2 371 368 
9 0 0 0 0 5 1 372 
1 0 0 0 0 2 1 370 
3 0 0 0 0 7 1 370 
3 0 0 0 0 6 1 375 
5 0 0 0 0 7 1 375 
8 0 0 0 0 7 1 375 
8 0 0 0 0 7 1 375 
8 0 0 0 0 6 1 375 
0 0 0 0 0 0 1 424 
0 0 0 0 0 0 3 377 378 380 
8 0 0 0 1 0 2 382 381 
5 0 0 0 6 0 2 379 390 
9 0 0 0 2 0 4 386 385 384 383 
4 0 0 0 4 0 1 381 
9 0 0 0 9 0 3 385 384 383 
7 0 0 0 5 0 3 386 384 383 
7 0 0 0 4 0 1 387 
8 0 0 0 7 0 1 387 
3 0 0 0 6 0 1 387 
7 0 0 0 6 0 1 387 
0 0 0 0 0 0 1 424 
0 0 0 0 0 0 5 389 390 391 392 393 
6 0 0 0 0 1 3 396 395 394 
9 0 0 0 0 8 2 396 394 
8 0 0 0 0 6 2 398 395 
6 0 0 0 0 7 3 398 395 403 
8 0 0 0 0 6 1 394 
8 0 0 0 0 4 2 398 397 
7 0 0 0 0 6 1 397 
8 0 0 0 0 4 1 397 
6 0 0 0 0 4 1 399 
8 0 0 0 0 4 1 399 
0 0 0 0 0 0 1 424 
0 0 0 0 0 0 5 401 402 403 409 410 
8 0 1 0 0 0 4 408 407 405 404 
8 0 4 0 0 0 4 408 407 405 404 
5 0 8 0 0 0 2 404 419 
9 0 6 0 0 0 1 406 
6 0 5 0 0 0 1 406 
7 0 3 0 0 0 1 411 
9 0 9 0 0 0 1 411 
5 0 5 0 0 0 1 411 
8 0 4 0 0 0 1 411 
9 0 5 0 0 0 1 411 
0 0 0 0 0 0 1 424 
0 0 0 0 0 0 7 413 414 415 419 420 421 422 
1 0 1 0 0 0 2 418 416 
1 0 5 0 0 0 1 416 
6 0 8 0 0 0 1 416 
3 0 4 0 0 0 1 417 
7 0 3 0 0 0 1 423 
1 0 8 0 0 0 1 423 
3 0 6 0 0 0 1 423 
2 0 6 0 0 0 1 423 
5 0 3 0 0 0 1 423 
4 0 6 0 0 0 1 423 
0 0 0 0 0 0 1 424 
0 0 0 0 0 0 0 
